WARNING: for repeatability, setting FPU to use double precision
============================[ Problem Statistics ]=============================
|                                                                             |
|  Number of variables:         14399                                         |
|  Number of clauses:          239575                                         |
|  Parse time:                   0.08 s                                       |
|  Eliminated clauses:           0.00 Mb                                      |
|  Simplification time:          0.07 s                                       |
|                                                                             |
============================[ Search Statistics ]==============================
| Conflicts |          ORIGINAL         |          LEARNT          | Progress |
|           |    Vars  Clauses Literals |    Limit  Clauses Lit/Cl |          |
===============================================================================
===============================================================================
restarts              : 1
conflicts             : 1              (7 /sec)
decisions             : 197            (0.00 % random) (1294 /sec)
propagations          : 14255          (93623 /sec)
conflict literals     : 165            (0.00 % deleted)
Memory used           : 34.00 MB
CPU time              : 0.15226 s

SATISFIABLE
